23
3 33 35 6 
3 29 10 5 
2 46 32 
3 23 27 17 
3 57 11 1 
2 59 16 
3 25 30 51 
2 7 46 
3 10 47 48 
2 45 26 
2 14 34 
3 36 18 50 
3 60 55 58 
3 10 32 48 
2 50 36 
3 12 53 37 
2 49 45 
3 49 30 60 
3 34 41 23 
3 40 2 16 
2 8 56 
2 33 35 
3 19 6 33 
